3537.81
45 46 92 91 89 88 58 59 71 72 84 85 86 87 90 77 65 66 67 161 160 159 158 145 132 131 143 144 146 147 148 134 133 109 106 107 108 121 120 122 135 119 118 105 104 102 103 101 98 99 97 110 111 112 128 129 130 117 116 115 100 113 125 123 124 114 127 126 140 139 136 149 150 151 152 137 138 141 142 155 156 157 170 171 183 184 172 173 174 186 187 5 3 185 1 2 4 15 93 95 94 96 83 70 44 43 30 31 18 16 13 25 24 11 10 193 0 194 181 182 166 165 191 192 180 167 168 169 154 153 164 163 162 176 177 179 178 190 189 188 175 6 7 8 9 21 22 20 19 32 33 47 60 62 78 79 80 81 82 69 68 57 56 55 41 54 53 64 63 76 75 74 73 61 48 34 35 23 36 37 38 39 26 12 14 17 29 28 27 42 40 52 51 50 49 
